cif2pos.py                              
   1.0000000000000000     
     3.8669746500000000    0.0000000000000000    0.0000000000000000
     1.9334873299999999    3.3488982799999998    0.0000000000000000
     1.9334873299999999    1.1162994300000000    3.1573715800000000
   Si
     2
Direct
  0.2500000000000000  0.2500000000000000  0.2500000000000000
  0.0000000000000000  0.0000000000000000  0.0000000000000000

  0.00000000E+00  0.00000000E+00  0.00000000E+00
  0.00000000E+00  0.00000000E+00  0.00000000E+00
